c description: Random 3-CNF over 19 variables and 81 clauses
c generator: CNFgen (0.9.2)
c copyright: (C) 2012-2022 Massimo Lauria <massimo.lauria@uniroma1.it>
c url: https://massimolauria.net/cnfgen
c command line: cnfgen --output CNF_4.28/19_bit_81_817.cnf randkcnf 3 19 81
c
p cnf 19 81
3 -10 -14 0
-1 -10 11 0
-3 -11 15 0
5 7 9 0
-1 5 -11 0
15 17 -18 0
-13 -17 -18 0
-7 -11 13 0
-1 8 -15 0
1 -5 14 0
-5 -9 -18 0
4 5 6 0
-17 18 -19 0
5 -8 -17 0
14 -15 -19 0
-1 -15 -19 0
-2 4 -18 0
10 -17 -18 0
-9 10 12 0
6 -8 13 0
5 16 -18 0
-10 14 -16 0
2 9 -13 0
-2 3 13 0
9 12 18 0
-1 -3 9 0
-4 5 -15 0
-4 17 18 0
-2 10 -15 0
-1 -10 19 0
-10 -17 18 0
7 15 -19 0
-3 -4 16 0
9 -12 19 0
1 3 11 0
-5 -9 10 0
6 9 11 0
-9 -10 -16 0
8 11 16 0
5 -9 -18 0
-11 13 -14 0
8 -9 -11 0
3 17 19 0
3 11 -13 0
-4 -6 -13 0
-1 -3 -18 0
6 -14 -15 0
4 -6 -17 0
3 4 7 0
2 11 -13 0
12 -16 -19 0
1 2 12 0
-2 8 -18 0
1 -4 5 0
11 12 -19 0
-6 9 -15 0
6 -12 -17 0
11 -16 -17 0
-7 12 17 0
-5 8 -16 0
3 -11 18 0
-1 -7 15 0
-2 8 -13 0
-2 -4 -8 0
-14 -15 16 0
1 11 15 0
1 -7 -13 0
1 8 15 0
-1 2 17 0
5 -10 19 0
-4 -6 -14 0
-2 -7 -15 0
1 5 -9 0
-9 -13 -16 0
-1 -2 -11 0
-1 9 -15 0
6 7 -14 0
9 -15 16 0
-6 8 -11 0
-3 4 14 0
4 -8 19 0
